####################################################################### 
# 
# This file contains crystal structure data downloaded from the 
# Cambridge Structural Database (CSD) hosted by the Cambridge 
# Crystallographic Data Centre (CCDC).
# 
# Full information about CCDC data access policies and citation 
# guidelines are available at http://www.ccdc.cam.ac.uk/access/V1 
# 
# Audit and citation data items may have been added by the CCDC. 
# Please retain this information to preserve the provenance of 
# this file and to allow appropriate attribution of the data. 
# 
#######################################################################

data_leflun
_audit_block_doi                 10.5517/cc8ppcz
_database_code_depnum_ccdc_archive 'CCDC 259171'
loop_
_citation_id
_citation_doi
_citation_year
1 10.1002/jps.20382 2006
_audit_update_record             
;
2004-12-22 deposited with the CCDC.	2022-05-18 downloaded from the CCDC.
;

_audit_creation_method           SHELXL-97
_chemical_name_systematic        
;
5-methyl-N-(4-trifluoromethyl-phenyl)-4-isoxazole
carboxamide
;
_chemical_name_common            leflunomide
_chemical_melting_point          ?
_chemical_formula_moiety         'C12 H9 F3 N2 O2'
_chemical_formula_sum            'C12 H9 F3 N2 O2'
_chemical_formula_weight         270.21

loop_
_atom_type_symbol
_atom_type_description
_atom_type_scat_dispersion_real
_atom_type_scat_dispersion_imag
_atom_type_scat_source
C C 0.0181 0.0091 'International Tables Vol C Tables 4.2.6.8 and 6.1.1.4'
H H 0.0000 0.0000 'International Tables Vol C Tables 4.2.6.8 and 6.1.1.4'
F F 0.0727 0.0534 'International Tables Vol C Tables 4.2.6.8 and 6.1.1.4'
N N 0.0311 0.0180 'International Tables Vol C Tables 4.2.6.8 and 6.1.1.4'
O O 0.0492 0.0322 'International Tables Vol C Tables 4.2.6.8 and 6.1.1.4'

_symmetry_cell_setting           monoclinic
_symmetry_space_group_name_H-M   'P 21/c'
_symmetry_space_group_name_Hall  '-P 2ybc'

loop_
_symmetry_equiv_pos_as_xyz
'x, y, z'
'-x, y+1/2, -z+1/2'
'-x, -y, -z'
'x, -y-1/2, z-1/2'

_cell_length_a                   10.578(7)
_cell_length_b                   7.9978(9)
_cell_length_c                   14.228(2)
_cell_angle_alpha                90.00
_cell_angle_beta                 92.89(4)
_cell_angle_gamma                90.00
_cell_volume                     1202.2(8)
_cell_formula_units_Z            4
_cell_measurement_temperature    293(2)
_cell_measurement_reflns_used    25
_cell_measurement_theta_min      18
_cell_measurement_theta_max      32

_exptl_crystal_description       prism
_exptl_crystal_colour            colorless
_exptl_crystal_size_max          0.225
_exptl_crystal_size_mid          0.2
_exptl_crystal_size_min          0.125
_exptl_crystal_density_meas      ?
_exptl_crystal_density_diffrn    1.493
_exptl_crystal_density_method    'not measured'
_exptl_crystal_F_000             552
_exptl_absorpt_coefficient_mu    1.175
_exptl_absorpt_correction_T_min  0.7911
_exptl_absorpt_correction_T_max  0.8624
_exptl_absorpt_correction_T_ave  0.8345
_exptl_absorpt_correction_type   psi-scan
_exptl_absorpt_process_details   '(North et al., 1968)'

_exptl_special_details           
;
?
;

_diffrn_ambient_temperature      293(2)
_diffrn_radiation_wavelength     1.5418
_diffrn_radiation_type           CuK\a
_diffrn_radiation_source         'fine-focus sealed tube'
_diffrn_radiation_monochromator  graphite
_diffrn_measurement_device_type  'Enraf Nonius CAD4'
_diffrn_measurement_method       'non-profiled omega/2theta scans'
_diffrn_detector_area_resol_mean ?
_diffrn_standards_number         1
_diffrn_standards_interval_count ?
_diffrn_standards_interval_time  60
_diffrn_standards_decay_%        4
_diffrn_reflns_number            2274
_diffrn_reflns_av_R_equivalents  0.0245
_diffrn_reflns_av_sigmaI/netI    0.0237
_diffrn_reflns_limit_h_min       0
_diffrn_reflns_limit_h_max       12
_diffrn_reflns_limit_k_min       0
_diffrn_reflns_limit_k_max       9
_diffrn_reflns_limit_l_min       -16
_diffrn_reflns_limit_l_max       16
_diffrn_reflns_theta_min         4.18
_diffrn_reflns_theta_max         67.05
_reflns_number_total             2151
_reflns_number_gt                1574
_reflns_threshold_expression     >2sigma(I)

_computing_data_collection       'CAD4 Express (Enraf Nonius, 1994)'
_computing_cell_refinement       'CAD4 Express (Enraf Nonius, 1994)'
_computing_data_reduction        'XCAD-4 (Harms & Wocadlo, 1995)'
_computing_structure_solution    'SHELXS-97 (Sheldrick, 1997)'
_computing_structure_refinement  'SHELXL-97 (Sheldrick, 1997)'
_computing_molecular_graphics    'ZORTEP (Zsolnai & Pritzkow, 1995)'
_computing_publication_material  'WinGX (Farrugia, 1999)'

_refine_special_details          
;
Refinement of F^2^ against ALL reflections. The weighted R-factor wR and
goodness of fit S are based on F^2^, conventional R-factors R are based
on F, with F set to zero for negative F^2^. The threshold expression of
F^2^ > 2sigma(F^2^) is used only for calculating R-factors(gt) etc. and is
not relevant to the choice of reflections for refinement. R-factors based
on F^2^ are statistically about twice as large as those based on F, and R-
factors based on ALL data will be even larger.
;

_refine_ls_structure_factor_coef Fsqd
_refine_ls_matrix_type           full
_refine_ls_weighting_scheme      calc
_refine_ls_weighting_details     
'calc w=1/[\s^2^(Fo^2^)+(0.0804P)^2^+0.2018P] where P=(Fo^2^+2Fc^2^)/3'
_atom_sites_solution_primary     direct
_atom_sites_solution_secondary   difmap
_atom_sites_solution_hydrogens   geom
_refine_ls_hydrogen_treatment    mixed
_refine_ls_extinction_method     SHELXL
_refine_ls_extinction_coef       0.0023(6)
_refine_ls_extinction_expression Fc^*^=kFc[1+0.001xFc^2^\l^3^/sin(2\q)]^-1/4^
_refine_ls_number_reflns         2151
_refine_ls_number_parameters     200
_refine_ls_number_restraints     0
_refine_ls_R_factor_all          0.0693
_refine_ls_R_factor_gt           0.0472
_refine_ls_wR_factor_ref         0.1439
_refine_ls_wR_factor_gt          0.1301
_refine_ls_goodness_of_fit_ref   1.068
_refine_ls_restrained_S_all      1.068
_refine_ls_shift/su_max          0.001
_refine_ls_shift/su_mean         0.000

loop_
_atom_site_label
_atom_site_type_symbol
_atom_site_fract_x
_atom_site_fract_y
_atom_site_fract_z
_atom_site_U_iso_or_equiv
_atom_site_adp_type
_atom_site_occupancy
_atom_site_symmetry_multiplicity
_atom_site_calc_flag
_atom_site_refinement_flags
_atom_site_disorder_assembly
_atom_site_disorder_group
C1C C 0.5790(2) 0.8717(3) 0.22733(19) 0.0630(6) Uani 1 1 d . . .
H1C H 0.5134 0.7977 0.2117 0.076 Uiso 1 1 calc R . .
C2C C 0.70425(19) 0.8489(3) 0.20011(14) 0.0474(5) Uani 1 1 d . . .
C3C C 0.7650(2) 0.9856(3) 0.23563(17) 0.0616(6) Uani 1 1 d . . .
C4C C 0.76114(18) 0.7148(3) 0.14483(14) 0.0469(5) Uani 1 1 d . . .
C5C C 0.70904(19) 0.4437(3) 0.06691(14) 0.0478(5) Uani 1 1 d . . .
C6C C 0.6104(2) 0.3331(3) 0.04841(17) 0.0601(6) Uani 1 1 d . . .
H3C H 0.5306 0.3569 0.0695 0.072 Uiso 1 1 calc R . .
C7C C 0.6292(2) 0.1887(3) -0.00070(18) 0.0636(6) Uani 1 1 d . . .
H4C H 0.5620 0.1153 -0.0124 0.076 Uiso 1 1 calc R . .
C8C C 0.7467(2) 0.1510(3) -0.03311(15) 0.0545(5) Uani 1 1 d . . .
C9C C 0.8442(2) 0.2617(3) -0.01630(18) 0.0654(7) Uani 1 1 d . . .
H5C H 0.9232 0.2382 -0.0389 0.079 Uiso 1 1 calc R . .
C10C C 0.8270(2) 0.4078(3) 0.03370(18) 0.0639(7) Uani 1 1 d . . .
H6C H 0.8942 0.4813 0.0449 0.077 Uiso 1 1 calc R . .
C11C C 0.7652(3) -0.0035(3) -0.08885(19) 0.0679(7) Uani 1 1 d . . .
C12C C 0.8959(3) 1.0487(5) 0.2335(3) 0.1159(14) Uani 1 1 d . . .
H7C H 0.9142 1.0769 0.1700 0.174 Uiso 1 1 calc R . .
H8C H 0.9536 0.9638 0.2566 0.174 Uiso 1 1 calc R . .
H9C H 0.9050 1.1463 0.2725 0.174 Uiso 1 1 calc R . .
O1C O 0.68422(16) 1.0806(2) 0.28239(13) 0.0711(5) Uani 1 1 d . . .
O2C O 0.87170(14) 0.7210(2) 0.12496(13) 0.0689(5) Uani 1 1 d . . .
N1C N 0.56474(19) 1.0064(2) 0.27633(16) 0.0713(6) Uani 1 1 d . . .
N2C N 0.68179(16) 0.5885(2) 0.11825(12) 0.0506(5) Uani 1 1 d . . .
H2C H 0.6051 0.5980 0.1349 0.061 Uiso 1 1 calc R . .
F1C F 0.8783(4) -0.0702(9) -0.0762(5) 0.095(2) Uani 0.70 1 d P A 1
F2C F 0.7512(10) 0.0221(10) -0.1789(4) 0.123(3) Uani 0.70 1 d P A 1
F3C F 0.6867(7) -0.1265(7) -0.0660(4) 0.0937(15) Uani 0.70 1 d P A 1
F4C F 0.8572(17) -0.093(2) -0.0561(14) 0.159(8) Uani 0.30 1 d P A 2
F5C F 0.793(3) 0.029(3) -0.1765(14) 0.149(9) Uani 0.30 1 d P A 2
F6C F 0.6623(19) -0.087(2) -0.1103(10) 0.131(6) Uani 0.30 1 d P A 2

loop_
_atom_site_aniso_label
_atom_site_aniso_U_11
_atom_site_aniso_U_22
_atom_site_aniso_U_33
_atom_site_aniso_U_23
_atom_site_aniso_U_13
_atom_site_aniso_U_12
C1C 0.0500(12) 0.0484(12) 0.0927(17) -0.0071(12) 0.0238(12) -0.0044(10)
C2C 0.0453(11) 0.0454(11) 0.0523(11) 0.0027(9) 0.0115(8) 0.0005(9)
C3C 0.0509(13) 0.0662(15) 0.0689(14) -0.0129(11) 0.0139(10) -0.0019(11)
C4C 0.0406(10) 0.0514(11) 0.0495(11) 0.0007(9) 0.0101(8) 0.0011(9)
C5C 0.0439(11) 0.0496(11) 0.0505(11) -0.0004(9) 0.0097(8) 0.0013(9)
C6C 0.0451(12) 0.0587(13) 0.0783(15) -0.0079(11) 0.0224(11) -0.0053(10)
C7C 0.0581(13) 0.0535(13) 0.0810(16) -0.0081(11) 0.0214(11) -0.0115(11)
C8C 0.0570(13) 0.0533(12) 0.0541(12) -0.0022(10) 0.0106(10) 0.0024(10)
C9C 0.0464(12) 0.0753(16) 0.0759(15) -0.0177(13) 0.0162(10) 0.0029(11)
C10C 0.0414(12) 0.0699(15) 0.0818(16) -0.0185(13) 0.0169(11) -0.0050(10)
C11C 0.0734(17) 0.0602(15) 0.0708(17) -0.0103(12) 0.0114(13) 0.0034(13)
C12C 0.0607(18) 0.122(3) 0.168(4) -0.071(3) 0.0297(19) -0.0284(17)
O1C 0.0619(10) 0.0623(10) 0.0909(12) -0.0238(9) 0.0213(9) -0.0039(8)
O2C 0.0431(9) 0.0741(11) 0.0915(12) -0.0228(9) 0.0218(8) -0.0072(7)
N1C 0.0572(12) 0.0546(12) 0.1048(17) -0.0133(11) 0.0317(11) -0.0030(9)
N2C 0.0400(9) 0.0514(10) 0.0620(10) -0.0071(8) 0.0171(7) -0.0008(7)
F1C 0.0704(18) 0.083(3) 0.133(5) -0.032(3) 0.021(2) 0.017(2)
F2C 0.229(8) 0.082(3) 0.056(3) -0.018(2) -0.010(4) 0.037(4)
F3C 0.100(4) 0.0566(16) 0.127(4) -0.020(2) 0.036(3) -0.0145(17)
F4C 0.26(2) 0.098(9) 0.112(8) -0.014(6) -0.042(11) 0.107(12)
F5C 0.229(18) 0.126(11) 0.102(12) -0.045(8) 0.096(13) -0.028(9)
F6C 0.106(9) 0.123(13) 0.166(14) -0.079(10) 0.040(10) -0.031(9)

_geom_special_details            
;
All esds (except the esd in the dihedral angle between two l.s. planes)
are estimated using the full covariance matrix. The cell esds are taken
into account individually in the estimation of esds in distances, angles
and torsion angles; correlations between esds in cell parameters are only
used when they are defined by crystal symmetry. An approximate (isotropic)
treatment of cell esds is used for estimating esds involving l.s. planes.
;

loop_
_geom_bond_atom_site_label_1
_geom_bond_atom_site_label_2
_geom_bond_distance
_geom_bond_site_symmetry_2
_geom_bond_publ_flag
C1C N1C 1.296(3) . ?
C1C C2C 1.411(3) . ?
C1C H1C 0.9300 . ?
C2C C3C 1.353(3) . ?
C2C C4C 1.476(3) . ?
C3C O1C 1.344(3) . ?
C3C C12C 1.475(3) . ?
C4C O2C 1.218(2) . ?
C4C N2C 1.355(3) . ?
C5C C6C 1.383(3) . ?
C5C C10C 1.387(3) . ?
C5C N2C 1.406(3) . ?
C6C C7C 1.369(3) . ?
C6C H3C 0.9300 . ?
C7C C8C 1.381(3) . ?
C7C H4C 0.9300 . ?
C8C C9C 1.371(3) . ?
C8C C11C 1.486(3) . ?
C9C C10C 1.385(3) . ?
C9C H5C 0.9300 . ?
C10C H6C 0.9300 . ?
C11C F4C 1.278(16) . ?
C11C F2C 1.299(7) . ?
C11C F6C 1.301(18) . ?
C11C F1C 1.314(6) . ?
C11C F5C 1.322(19) . ?
C11C F3C 1.339(7) . ?
C12C H7C 0.9600 . ?
C12C H8C 0.9600 . ?
C12C H9C 0.9600 . ?
O1C N1C 1.395(3) . ?
N2C H2C 0.8600 . ?

loop_
_geom_angle_atom_site_label_1
_geom_angle_atom_site_label_2
_geom_angle_atom_site_label_3
_geom_angle
_geom_angle_site_symmetry_1
_geom_angle_site_symmetry_3
_geom_angle_publ_flag
N1C C1C C2C 113.1(2) . . ?
N1C C1C H1C 123.5 . . ?
C2C C1C H1C 123.5 . . ?
C3C C2C C1C 103.14(19) . . ?
C3C C2C C4C 125.98(19) . . ?
C1C C2C C4C 130.9(2) . . ?
O1C C3C C2C 109.9(2) . . ?
O1C C3C C12C 115.9(2) . . ?
C2C C3C C12C 134.2(2) . . ?
O2C C4C N2C 123.62(19) . . ?
O2C C4C C2C 121.10(19) . . ?
N2C C4C C2C 115.28(17) . . ?
C6C C5C C10C 119.1(2) . . ?
C6C C5C N2C 116.95(18) . . ?
C10C C5C N2C 123.99(19) . . ?
C7C C6C C5C 120.6(2) . . ?
C7C C6C H3C 119.7 . . ?
C5C C6C H3C 119.7 . . ?
C6C C7C C8C 120.7(2) . . ?
C6C C7C H4C 119.7 . . ?
C8C C7C H4C 119.7 . . ?
C9C C8C C7C 118.8(2) . . ?
C9C C8C C11C 120.8(2) . . ?
C7C C8C C11C 120.3(2) . . ?
C8C C9C C10C 121.2(2) . . ?
C8C C9C H5C 119.4 . . ?
C10C C9C H5C 119.4 . . ?
C9C C10C C5C 119.6(2) . . ?
C9C C10C H6C 120.2 . . ?
C5C C10C H6C 120.2 . . ?
F4C C11C F6C 114.2(12) . . ?
F2C C11C F1C 104.9(5) . . ?
F4C C11C F5C 104.8(13) . . ?
F6C C11C F5C 95.9(13) . . ?
F2C C11C F3C 108.3(6) . . ?
F1C C11C F3C 103.9(4) . . ?
F4C C11C C8C 113.0(10) . . ?
F2C C11C C8C 112.6(4) . . ?
F6C C11C C8C 114.9(8) . . ?
F1C C11C C8C 114.1(4) . . ?
F5C C11C C8C 112.4(11) . . ?
F3C C11C C8C 112.4(4) . . ?
C3C C12C H7C 109.5 . . ?
C3C C12C H8C 109.5 . . ?
H7C C12C H8C 109.5 . . ?
C3C C12C H9C 109.5 . . ?
H7C C12C H9C 109.5 . . ?
H8C C12C H9C 109.5 . . ?
C3C O1C N1C 108.96(17) . . ?
C1C N1C O1C 104.90(17) . . ?
C4C N2C C5C 128.21(17) . . ?
C4C N2C H2C 115.9 . . ?
C5C N2C H2C 115.9 . . ?

loop_
_geom_torsion_atom_site_label_1
_geom_torsion_atom_site_label_2
_geom_torsion_atom_site_label_3
_geom_torsion_atom_site_label_4
_geom_torsion
_geom_torsion_site_symmetry_1
_geom_torsion_site_symmetry_2
_geom_torsion_site_symmetry_3
_geom_torsion_site_symmetry_4
_geom_torsion_publ_flag
N1C C1C C2C C3C -1.4(3) . . . . ?
N1C C1C C2C C4C 180.0(2) . . . . ?
C1C C2C C3C O1C 1.5(3) . . . . ?
C4C C2C C3C O1C -179.76(19) . . . . ?
C1C C2C C3C C12C -178.5(4) . . . . ?
C4C C2C C3C C12C 0.3(5) . . . . ?
C3C C2C C4C O2C -1.6(3) . . . . ?
C1C C2C C4C O2C 176.8(2) . . . . ?
C3C C2C C4C N2C 178.8(2) . . . . ?
C1C C2C C4C N2C -2.8(3) . . . . ?
C10C C5C C6C C7C 1.0(4) . . . . ?
N2C C5C C6C C7C -179.6(2) . . . . ?
C5C C6C C7C C8C -0.3(4) . . . . ?
C6C C7C C8C C9C -0.8(4) . . . . ?
C6C C7C C8C C11C -178.1(2) . . . . ?
C7C C8C C9C C10C 1.2(4) . . . . ?
C11C C8C C9C C10C 178.5(2) . . . . ?
C8C C9C C10C C5C -0.5(4) . . . . ?
C6C C5C C10C C9C -0.6(4) . . . . ?
N2C C5C C10C C9C -180.0(2) . . . . ?
C9C C8C C11C F4C 55.1(11) . . . . ?
C7C C8C C11C F4C -127.7(11) . . . . ?
C9C C8C C11C F2C -84.3(6) . . . . ?
C7C C8C C11C F2C 93.0(6) . . . . ?
C9C C8C C11C F6C -171.5(8) . . . . ?
C7C C8C C11C F6C 5.8(8) . . . . ?
C9C C8C C11C F1C 35.1(5) . . . . ?
C7C C8C C11C F1C -147.7(4) . . . . ?
C9C C8C C11C F5C -63.2(13) . . . . ?
C7C C8C C11C F5C 114.0(13) . . . . ?
C9C C8C C11C F3C 153.0(3) . . . . ?
C7C C8C C11C F3C -29.7(4) . . . . ?
C2C C3C O1C N1C -1.2(3) . . . . ?
C12C C3C O1C N1C 178.8(3) . . . . ?
C2C C1C N1C O1C 0.7(3) . . . . ?
C3C O1C N1C C1C 0.3(3) . . . . ?
O2C C4C N2C C5C 1.6(3) . . . . ?
C2C C4C N2C C5C -178.90(19) . . . . ?
C6C C5C N2C C4C -179.8(2) . . . . ?
C10C C5C N2C C4C -0.5(3) . . . . ?

loop_
_geom_hbond_atom_site_label_D
_geom_hbond_atom_site_label_H
_geom_hbond_atom_site_label_A
_geom_hbond_distance_DH
_geom_hbond_distance_HA
_geom_hbond_distance_DA
_geom_hbond_angle_DHA
_geom_hbond_site_symmetry_A
N2C H2C N1C 0.86 2.36 3.143(3) 151 2_645

_diffrn_measured_fraction_theta_max 1.000
_diffrn_reflns_theta_full        67.05
_diffrn_measured_fraction_theta_full 1.000
_refine_diff_density_max         0.236
_refine_diff_density_min         -0.169
_refine_diff_density_rms         0.040
